94	5	39	40	19	43	9	70	9	85	33	33	6	80	18	38	57	49	2	38
37	6	76	88	53	46	59	39	44	68	42	94	48	88	40	79	100	95	58	35
72	70	31	5	18	8	57	41	15	93	24	48	89	84	17	32	61	92	35	63
9	67	59	21	50	19	77	26	49	26	29	57	70	5	19	72	70	12	85	33
63	92	73	61	44	64	8	98	82	17	76	80	93	15	25	2	62	90	34	47
